(set-option :incremental false)
(set-logic ALL)
(declare-const BAV1 Bool)
(declare-const BAV2 Bool)
(declare-const BAV3 Bool)
(declare-const BAV4 Bool)
(declare-const BAV5 Bool)
(declare-const GEN12 Int)
(declare-const GEN11 Int)
(declare-const GEN10 Int)
(declare-const GEN9 Int)
(declare-const GEN8 Int)
(declare-const GEN7 Int)
(declare-const GEN6 Int)
(declare-const GEN5 Int)
(declare-const GEN4 Int)
(declare-const GEN3 Int)
(declare-const GEN2 Int)
(declare-const GEN1 Int)
(declare-fun x () (_ BitVec 16))
(declare-fun y () (_ BitVec 12))
(assert (= y ((_ extract 11 0) x)))
(assert (= y ((_ extract 15 4) x)))
(assert (= ((_ extract 3 2) y) ((_ extract 1 0) y)))
(assert (= ((_ extract 1 0) x) (_ bv1 2)))
(assert (= BAV1 (= y ((_ extract 11 0) x))))
(assert (= BAV2 (= y ((_ extract 15 4) x))))
(assert (= BAV3 (= ((_ extract 3 2) y) ((_ extract 1 0) y))))
(assert (= BAV4 (= ((_ extract 1 0) x) (_ bv1 2))))
(assert (= BAV5 (= x (_ bv21845 16))))
(check-sat-assuming ((not (= x (_ bv21845 16)))))
(get-model)